
Gurobi 10.0.1 (linux64) logging started Wed May 24 15:12:33 2023

Set parameter LogFile to value "logFiles/N-1L-B/N-1L-13U-10F-23V-120D/basic-05-24-2023, 15-12-H70-P50-O15.log"
Gurobi Optimizer version 10.0.1 build v10.0.1rc0 (linux64)

CPU model: Intel(R) Xeon(R) Gold 5115 CPU @ 2.40GHz, instruction set [SSE2|AVX|AVX2|AVX512]
Thread count: 20 physical cores, 40 logical processors, using up to 20 threads

Optimize a model with 60238 rows, 935371 columns and 4821047 nonzeros
Model fingerprint: 0xd1a33174
Variable types: 374776 continuous, 560595 integer (560595 binary)
Coefficient statistics:
  Matrix range     [1e+00, 2e+05]
  Objective range  [4e+01, 3e+07]
  Bounds range     [1e+00, 1e+00]
  RHS range        [1e+00, 1e+06]
Presolve removed 29676 rows and 89538 columns (presolve time = 5s) ...
Presolve removed 31076 rows and 111698 columns (presolve time = 10s) ...
Presolve removed 31077 rows and 111822 columns (presolve time = 15s) ...
Presolve removed 31077 rows and 111822 columns (presolve time = 20s) ...
Presolve removed 31077 rows and 111848 columns (presolve time = 25s) ...
Presolve removed 31077 rows and 111848 columns (presolve time = 30s) ...
Presolve removed 31077 rows and 111848 columns (presolve time = 35s) ...
Presolve removed 31077 rows and 111848 columns (presolve time = 40s) ...
Presolve removed 31077 rows and 111848 columns (presolve time = 45s) ...
Presolve removed 31077 rows and 111848 columns (presolve time = 50s) ...
Presolve removed 31391 rows and 120004 columns (presolve time = 55s) ...
Presolve removed 31363 rows and 119976 columns
Presolve time: 56.93s
Presolved: 28875 rows, 815395 columns, 3970250 nonzeros
Variable types: 312297 continuous, 503098 integer (503098 binary)
Deterministic concurrent LP optimizer: primal simplex, dual simplex, and barrier
Showing barrier log only...

Root barrier log...

Ordering time: 1.93s

Barrier statistics:
 AA' NZ     : 1.955e+06
 Factor NZ  : 6.989e+06 (roughly 400 MB of memory)
 Factor Ops : 9.729e+09 (less than 1 second per iteration)
 Threads    : 17

                  Objective                Residual
Iter       Primal          Dual         Primal    Dual     Compl     Time
   0  -1.52289478e+16  2.17507501e+13  1.05e+09 7.50e+06  1.12e+12    70s
   1  -7.83736173e+15  2.72399184e+13  5.43e+08 8.74e+06  5.87e+11    71s
   2  -1.35344070e+15  2.97196253e+13  9.38e+07 2.91e+06  1.04e+11    72s
   3  -2.12393012e+14  2.27288255e+13  1.47e+07 3.82e-08  1.65e+10    73s
   4  -1.00898131e+13  1.71545973e+13  7.00e+05 5.40e-08  7.92e+08    73s
   5  -5.88161302e+12  1.28080565e+13  4.08e+05 3.54e-08  4.69e+08    74s
   6  -4.21422963e+12  9.94903018e+12  2.92e+05 3.73e-08  3.42e+08    75s
   7  -1.42931357e+12  8.68332884e+12  9.92e+04 3.35e-08  1.18e+08    75s
   8  -6.06574023e+11  7.68988421e+12  4.22e+04 1.34e-07  5.16e+07    76s
   9  -3.31605087e+11  6.85931993e+12  2.31e+04 1.04e-07  2.91e+07    76s
  10  -1.44752436e+11  5.93642271e+12  1.01e+04 9.31e-08  1.41e+07    77s
  11  -6.01800381e+10  4.04235540e+12  4.28e+03 7.45e-08  6.45e+06    78s
  12  -3.24778248e+10  3.05127416e+12  2.36e+03 2.38e-07  3.89e+06    78s
  13  -1.10840449e+10  1.87010546e+12  8.84e+02 4.10e-08  1.81e+06    79s
  14  -3.20317758e+09  5.54899655e+11  3.40e+02 3.35e-08  5.35e+05    80s
  15   2.66543452e+08  1.77699429e+11  9.99e+01 2.38e-07  1.56e+05    80s
  16   9.29471143e+08  1.12644279e+11  5.41e+01 8.10e-08  9.34e+04    81s
  17   1.18173782e+09  9.02867258e+10  3.69e+01 1.27e-07  7.15e+04    81s
  18   1.37903048e+09  7.06456694e+10  2.38e+01 1.70e-07  5.33e+04    82s
  19   1.44876012e+09  6.01666220e+10  1.93e+01 1.99e-07  4.50e+04    82s
  20   1.46591490e+09  5.28674920e+10  1.82e+01 2.84e-07  4.01e+04    83s
  21   1.56807184e+09  3.70777005e+10  1.19e+01 2.22e-07  2.77e+04    84s
  22   1.60981112e+09  3.09611469e+10  9.51e+00 3.01e-07  2.30e+04    85s
  23   1.64250983e+09  2.65383857e+10  7.82e+00 3.31e-07  1.95e+04    86s
  24   1.67153788e+09  2.26606817e+10  6.45e+00 2.85e-07  1.66e+04    87s
  25   1.71495241e+09  1.94474911e+10  4.43e+00 2.70e-07  1.35e+04    88s
  26   1.73367426e+09  1.69796425e+10  3.51e+00 3.17e-07  1.15e+04    89s
  27   1.75566415e+09  1.48895143e+10  2.67e+00 3.32e-07  9.72e+03    89s
  28   1.76000036e+09  1.19111196e+10  2.49e+00 3.89e-07  7.74e+03    90s
  29   1.78412033e+09  1.06010179e+10  2.09e+00 2.90e-07  6.60e+03    91s
  30   1.81101060e+09  8.69744507e+09  1.75e+00 4.85e-07  5.09e+03    92s
  31   1.82849149e+09  6.84075906e+09  1.53e+00 4.48e-07  3.71e+03    93s
  32   1.84795535e+09  5.69479395e+09  1.31e+00 5.55e-07  2.83e+03    94s
  33   1.87481231e+09  4.86130477e+09  1.05e+00 4.26e-07  2.15e+03    95s
  34   1.90293514e+09  4.24244069e+09  7.44e-01 3.42e-07  1.63e+03    95s
  35   1.92247128e+09  3.70959527e+09  6.03e-01 4.54e-07  1.23e+03    96s
  36   1.93474170e+09  3.14072341e+09  5.05e-01 4.70e-07  8.27e+02    97s
  37   1.94771317e+09  2.79664743e+09  4.06e-01 3.61e-07  5.79e+02    98s
  38   1.95546299e+09  2.68958100e+09  3.57e-01 5.31e-07  4.98e+02    99s
  39   1.96293957e+09  2.59520652e+09  3.03e-01 3.42e-07  4.25e+02   100s
  40   1.96512247e+09  2.49693258e+09  2.80e-01 3.11e-07  3.57e+02   101s
  41   1.98338543e+09  2.37086237e+09  1.66e-01 5.16e-07  2.54e+02   101s
  42   1.98964428e+09  2.28046508e+09  1.35e-01 3.54e-07  1.90e+02   102s
  43   1.99597405e+09  2.23149962e+09  1.10e-01 3.41e-07  1.53e+02   103s
  44   2.01121620e+09  2.18105537e+09  5.96e-02 5.07e-07  1.08e+02   104s
  45   2.01591707e+09  2.16536425e+09  4.93e-02 5.46e-07  9.50e+01   105s
  46   2.01714013e+09  2.14893698e+09  4.65e-02 3.69e-07  8.39e+01   106s
  47   2.01979722e+09  2.13019382e+09  4.19e-02 6.11e-07  7.04e+01   106s
  48   2.02326504e+09  2.12501435e+09  3.54e-02 4.02e-07  6.46e+01   107s
  49   2.02436896e+09  2.11920740e+09  3.38e-02 5.84e-07  6.03e+01   108s
  50   2.02774338e+09  2.10646215e+09  2.90e-02 5.61e-07  5.00e+01   109s
  51   2.03201228e+09  2.10389929e+09  2.38e-02 5.59e-07  4.55e+01   110s
  52   2.03442110e+09  2.09867969e+09  2.14e-02 6.60e-07  4.06e+01   111s
  53   2.03726393e+09  2.08442488e+09  1.79e-02 5.73e-07  2.99e+01   112s
  54   2.03798068e+09  2.08368434e+09  1.71e-02 4.54e-07  2.90e+01   112s
  55   2.03906335e+09  2.08221894e+09  1.60e-02 6.94e-07  2.73e+01   113s
  56   2.04250576e+09  2.07983144e+09  1.21e-02 4.85e-07  2.35e+01   114s
  57   2.04492935e+09  2.07697032e+09  9.69e-03 3.94e-07  2.02e+01   115s
  58   2.04613403e+09  2.07568630e+09  8.67e-03 3.98e-07  1.86e+01   116s
  59   2.04634771e+09  2.07362570e+09  8.49e-03 4.12e-07  1.72e+01   117s
  60   2.04770915e+09  2.07247043e+09  7.37e-03 4.83e-07  1.56e+01   117s
  61   2.04998847e+09  2.07089605e+09  5.79e-03 3.19e-07  1.31e+01   118s
  62   2.05104387e+09  2.06859654e+09  5.09e-03 4.44e-07  1.10e+01   119s
  63   2.05296293e+09  2.06717986e+09  3.98e-03 5.18e-07  8.92e+00   120s
  64   2.05366673e+09  2.06587622e+09  3.63e-03 5.24e-07  7.68e+00   121s
  65   2.05466771e+09  2.06466330e+09  3.14e-03 3.85e-07  6.30e+00   121s
  66   2.05603337e+09  2.06390491e+09  2.48e-03 3.10e-07  4.96e+00   122s
  67   2.05791876e+09  2.06245605e+09  1.56e-03 4.05e-07  2.87e+00   123s
  68   2.05886164e+09  2.06220305e+09  1.11e-03 2.72e-07  2.11e+00   124s
  69   2.05956366e+09  2.06180183e+09  7.80e-04 3.20e-07  1.42e+00   125s
  70   2.05977687e+09  2.06178205e+09  6.81e-04 3.95e-07  1.27e+00   126s
  71   2.05988669e+09  2.06172798e+09  6.30e-04 3.32e-07  1.16e+00   126s
  72   2.06001308e+09  2.06160501e+09  5.71e-04 4.41e-07  1.01e+00   127s
  73   2.06028839e+09  2.06149277e+09  4.39e-04 3.42e-07  7.64e-01   127s
  74   2.06064968e+09  2.06146770e+09  2.71e-04 3.87e-07  5.17e-01   127s
  75   2.06073229e+09  2.06139075e+09  2.32e-04 3.57e-07  4.17e-01   128s
  76   2.06098785e+09  2.06132911e+09  1.17e-04 3.37e-07  2.16e-01   129s
  77   2.06110059e+09  2.06128453e+09  6.37e-05 3.57e-07  1.17e-01   129s
  78   2.06115652e+09  2.06126445e+09  3.92e-05 3.89e-07  6.85e-02   130s
  79   2.06121631e+09  2.06125096e+09  1.25e-05 4.63e-07  2.20e-02   131s
  80   2.06123014e+09  2.06124849e+09  6.75e-06 4.30e-07  1.17e-02   131s
  81   2.06124259e+09  2.06124757e+09  1.58e-06 4.51e-07  3.15e-03   132s
  82   2.06124408e+09  2.06124669e+09  9.74e-07 4.38e-07  1.66e-03   133s
  83   2.06124631e+09  2.06124649e+09  5.45e-08 4.19e-07  1.16e-04   133s
  84   2.06124644e+09  2.06124647e+09  1.12e-08 3.97e-07  1.72e-05   134s
  85   2.06124647e+09  2.06124647e+09  7.10e-10 3.20e-07  1.34e-08   135s
  86   2.06124647e+09  2.06124647e+09  2.02e-10 3.58e-07  3.36e-11   135s

Barrier solved model in 86 iterations and 135.39 seconds (76.99 work units)
Optimal objective 2.06124647e+09


Root crossover log...

   24811 DPushes remaining with DInf 0.0000000e+00               136s
       0 DPushes remaining with DInf 0.0000000e+00               136s

     964 PPushes remaining with PInf 0.0000000e+00               136s
       0 PPushes remaining with PInf 0.0000000e+00               136s

  Push phase complete: Pinf 0.0000000e+00, Dinf 3.1500000e+03    136s


Root simplex log...

Iteration    Objective       Primal Inf.    Dual Inf.      Time
   22448    2.0612465e+09   0.000000e+00   3.150000e+03    137s
   22451    2.0612465e+09   0.000000e+00   0.000000e+00    137s
Concurrent spin time: 0.03s

Solved with barrier
   22453    2.0612465e+09   0.000000e+00   0.000000e+00    138s
Extra simplex iterations after uncrush: 2

Root relaxation: objective 2.061246e+09, 22453 iterations, 75.08 seconds (30.42 work units)

    Nodes    |    Current Node    |     Objective Bounds      |     Work
 Expl Unexpl |  Obj  Depth IntInf | Incumbent    BestBd   Gap | It/Node Time

     0     0 2.0612e+09    0  180          - 2.0612e+09      -     -  141s
H    0     0                    2.019688e+09 2.0612e+09  2.06%     -  154s
H    0     0                    2.019710e+09 2.0612e+09  2.06%     -  158s
     0     0 2.0612e+09    0  194 2.0197e+09 2.0612e+09  2.05%     -  175s
H    0     0                    2.042233e+09 2.0612e+09  0.93%     -  190s

Cutting planes:
  Cover: 1
  Implied bound: 5
  MIR: 4
  Flow cover: 9
  GUB cover: 1
  Network: 2
  RLT: 2

Explored 1 nodes (26519 simplex iterations) in 192.51 seconds (120.52 work units)
Thread count was 20 (of 40 available processors)

Solution count 4: 2.04223e+09 2.04223e+09 2.01971e+09 2.01969e+09 

Optimal solution found (tolerance 1.00e-02)
Best objective 2.042233344259e+09, best bound 2.061210798502e+09, gap 0.9293%
Gurobi Optimizer version 10.0.1 build v10.0.1rc0 (linux64)

CPU model: Intel(R) Xeon(R) Gold 5115 CPU @ 2.40GHz, instruction set [SSE2|AVX|AVX2|AVX512]
Thread count: 20 physical cores, 40 logical processors, using up to 20 threads

Optimize a model with 66741 rows, 950591 columns and 4626989 nonzeros
Model fingerprint: 0xff09afa4
Variable types: 12777 continuous, 937814 integer (937814 binary)
Coefficient statistics:
  Matrix range     [1e+00, 2e+05]
  Objective range  [4e+01, 3e+07]
  Bounds range     [1e+00, 3e+05]
  RHS range        [1e+00, 1e+06]
Presolve removed 63410 rows and 916312 columns
Presolve time: 2.58s
Presolved: 3331 rows, 34279 columns, 138263 nonzeros
Variable types: 830 continuous, 33449 integer (33449 binary)
Found heuristic solution: objective 1.146393e+09
Deterministic concurrent LP optimizer: primal and dual simplex
Showing first log only...

Concurrent spin time: 0.32s

Solved with dual simplex
Extra simplex iterations after uncrush: 315

Root relaxation: objective 1.946508e+09, 9218 iterations, 1.24 seconds (0.79 work units)

    Nodes    |    Current Node    |     Objective Bounds      |     Work
 Expl Unexpl |  Obj  Depth IntInf | Incumbent    BestBd   Gap | It/Node Time

     0     0 1.9465e+09    0   26 1.1464e+09 1.9465e+09  69.8%     -    4s
H    0     0                    1.930606e+09 1.9465e+09  0.82%     -    4s

Explored 1 nodes (9455 simplex iterations) in 4.77 seconds (3.12 work units)
Thread count was 20 (of 40 available processors)

Solution count 2: 1.93061e+09 1.14639e+09 

Optimal solution found (tolerance 1.00e-02)
Best objective 1.930606228674e+09, best bound 1.946508485165e+09, gap 0.8237%
